c 1 2 ?
p cnf 8 4
1,2,0
3,4,0
5,6,0
7,8,0
c 2 2 ?
p cnf 8 4
-1,-2,0
-3,-4,0
-5,-6,0
-7,-8,0
c 3 2 ?
p cnf 4 4
1,3,0
2,4,0
-1,-3,0
-2,-4,0
c 4 2 ?
p cnf 4 4
5,7,0
6,8,0
-5,-7,0
-6,-8,0
c 5 2 ?
p cnf 4 4
1,5,0
2,6,0
-1,-5,0
-2,-6,0
c 6 2 ?
p cnf 4 4
3,7,0
4,8,0
-3,-7,0
-4,-8,0

#one variable can have two literals